(benchmark gametime
:status unknown
:logic QF_AUFBV
:extrafuns ((gtINDEX78  BitVec[32]))
:extrafuns ((gtFIELD__bitsForTID0__gtAGG____anonstruct_D_Work_4  Array[32:32]))
:extrafuns ((gtINDEX79  BitVec[32]))
:extrafuns ((gtAGG__rtDWork  BitVec[32]))
:extrafuns ((gtINDEX76  BitVec[32]))
:extrafuns ((gtINDEX77  BitVec[32]))
:extrafuns ((gtINDEX74  BitVec[32]))
:extrafuns ((gtINDEX75  BitVec[32]))
:extrafuns ((gtINDEX72  BitVec[32]))
:extrafuns ((gtINDEX73  BitVec[32]))
:extrafuns ((gtINDEX71  BitVec[32]))
:extrafuns ((gtINDEX70  BitVec[32]))
:extrafuns ((gtINDEX69  BitVec[32]))
:extrafuns ((gtINDEX68  BitVec[32]))
:extrafuns ((gtINDEX66  BitVec[32]))
:extrafuns ((gtINDEX67  BitVec[32]))
:extrafuns ((gtINDEX64  BitVec[32]))
:extrafuns ((gtINDEX65  BitVec[32]))
:extrafuns ((gtINDEX62  BitVec[32]))
:extrafuns ((gtINDEX63  BitVec[32]))
:extrafuns ((gtINDEX60  BitVec[32]))
:extrafuns ((gtINDEX61  BitVec[32]))
:extrafuns ((gtINDEX58  BitVec[32]))
:extrafuns ((gtINDEX59  BitVec[32]))
:extrafuns ((gtINDEX56  BitVec[32]))
:extrafuns ((gtINDEX57  BitVec[32]))
:extrafuns ((gtINDEX54  BitVec[32]))
:extrafuns ((gtINDEX55  BitVec[32]))
:extrafuns ((gtINDEX52  BitVec[32]))
:extrafuns ((gtINDEX53  BitVec[32]))
:extrafuns ((gtINDEX50  BitVec[32]))
:extrafuns ((gtINDEX51  BitVec[32]))
:extrafuns ((gtINDEX48  BitVec[32]))
:extrafuns ((gtINDEX49  BitVec[32]))
:extrafuns ((gtINDEX47  BitVec[32]))
:extrafuns ((gtINDEX45  BitVec[32]))
:extrafuns ((gtINDEX46  BitVec[32]))
:extrafuns ((gtINDEX43  BitVec[32]))
:extrafuns ((gtINDEX44  BitVec[32]))
:extrafuns ((gtINDEX41  BitVec[32]))
:extrafuns ((gtINDEX42  BitVec[32]))
:extrafuns ((gtINDEX39  BitVec[32]))
:extrafuns ((gtINDEX40  BitVec[32]))
:extrafuns ((gtINDEX37  BitVec[32]))
:extrafuns ((gtINDEX38  BitVec[32]))
:extrafuns ((gtINDEX36  BitVec[32]))
:extrafuns ((gtINDEX35  BitVec[32]))
:extrafuns ((gtINDEX34  BitVec[32]))
:extrafuns ((gtINDEX33  BitVec[32]))
:extrafuns ((gtINDEX32  BitVec[32]))
:extrafuns ((gtINDEX31  BitVec[32]))
:extrafuns ((gtINDEX29  BitVec[32]))
:extrafuns ((gtINDEX30  BitVec[32]))
:extrafuns ((gtINDEX27  BitVec[32]))
:extrafuns ((gtINDEX28  BitVec[32]))
:extrafuns ((gtINDEX25  BitVec[32]))
:extrafuns ((gtINDEX26  BitVec[32]))
:extrafuns ((gtINDEX23  BitVec[32]))
:extrafuns ((gtINDEX24  BitVec[32]))
:extrafuns ((gtINDEX21  BitVec[32]))
:extrafuns ((gtINDEX22  BitVec[32]))
:extrafuns ((gtINDEX19  BitVec[32]))
:extrafuns ((gtINDEX20  BitVec[32]))
:extrafuns ((gtINDEX17  BitVec[32]))
:extrafuns ((gtINDEX18  BitVec[32]))
:extrafuns ((gtINDEX15  BitVec[32]))
:extrafuns ((gtINDEX16  BitVec[32]))
:extrafuns ((gtINDEX13  BitVec[32]))
:extrafuns ((gtINDEX14  BitVec[32]))
:extrafuns ((gtINDEX11  BitVec[32]))
:extrafuns ((gtINDEX12  BitVec[32]))
:extrafuns ((gtINDEX10  BitVec[32]))
:extrafuns ((gtINDEX8  BitVec[32]))
:extrafuns ((gtINDEX9  BitVec[32]))
:extrafuns ((gtINDEX6  BitVec[32]))
:extrafuns ((gtINDEX7  BitVec[32]))
:extrafuns ((gtINDEX4  BitVec[32]))
:extrafuns ((gtINDEX5  BitVec[32]))
:extrafuns ((gtINDEX2  BitVec[32]))
:extrafuns ((gtINDEX3  BitVec[32]))
:extrafuns ((gtINDEX0  BitVec[32]))
:extrafuns ((gtINDEX1  BitVec[32]))
:extrafuns ((gtFIELD__is_Eng__gtAGG____anonstruct_bitsForTID0_5_1_  Array[32:1]))
:extrafuns ((gtFIELD__is_Eng__gtAGG____anonstruct_bitsForTID0_5_2_  Array[32:1]))
:extrafuns ((sf_previousEvent_1_  BitVec[32]))
:extrafuns ((sfEvent__2_  BitVec[32]))
:extrafuns ((gtFIELD__is_Eng__gtAGG____anonstruct_bitsForTID0_5  Array[32:1]))
:extrafuns ((gtFIELD__sent__gtAGG____anonstruct_D_Work_4_1_  Array[32:32]))
:extrafuns ((gtFIELD__sent__gtAGG____anonstruct_D_Work_4_2_  Array[32:32]))
:extrafuns ((gtFIELD__is_active_Eng__gtAGG____anonstruct_bitsForTID0_5  Array[32:1]))
:extrafuns ((gtFIELD__is_active_PURI__gtAGG____anonstruct_bitsForTID0_5  Array[32:1]))
:extrafuns ((gtFIELD__is_PVRP__gtAGG____anonstruct_bitsForTID0_5_1_  Array[32:2]))
:extrafuns ((gtFIELD__is_PVRP__gtAGG____anonstruct_bitsForTID0_5_2_  Array[32:2]))
:extrafuns ((gtFIELD__is_active_PVRP__gtAGG____anonstruct_bitsForTID0_5  Array[32:1]))
:extrafuns ((gtFIELD__is_active_PPVARP__gtAGG____anonstruct_bitsForTID0_5  Array[32:1]))
:extrafuns ((gtFIELD__is_active_PLRI__gtAGG____anonstruct_bitsForTID0_5  Array[32:1]))
:extrafuns ((gtFIELD__is_PAVI__gtAGG____anonstruct_bitsForTID0_5  Array[32:3]))
:extrafuns ((gtFIELD__is_active_PAVI__gtAGG____anonstruct_bitsForTID0_5  Array[32:1]))
:extrafuns ((sfEvent__1_  BitVec[32]))
:extrafuns ((sfEvent_  BitVec[32]))
:extrafuns ((gtFIELD__sent__gtAGG____anonstruct_D_Work_4  Array[32:32]))
:extrafuns ((gtFIELD__is_PVRP__gtAGG____anonstruct_bitsForTID0_5  Array[32:2]))
:extrapreds ((constraint130 ))
:extrapreds ((constraint129 ))
:extrapreds ((constraint128 ))
:extrapreds ((constraint127 ))
:extrapreds ((constraint126 ))
:extrapreds ((constraint125 ))
:extrapreds ((constraint124 ))
:extrapreds ((constraint123 ))
:extrapreds ((constraint122 ))
:extrapreds ((constraint121 ))
:extrapreds ((constraint120 ))
:extrapreds ((constraint119 ))
:extrapreds ((constraint118 ))
:extrapreds ((constraint117 ))
:extrapreds ((constraint116 ))
:extrapreds ((constraint115 ))
:extrapreds ((constraint114 ))
:extrapreds ((constraint113 ))
:extrapreds ((constraint112 ))
:extrapreds ((constraint111 ))
:extrapreds ((constraint110 ))
:extrapreds ((constraint109 ))
:extrapreds ((constraint108 ))
:extrapreds ((constraint107 ))
:extrapreds ((constraint106 ))
:extrapreds ((constraint105 ))
:extrapreds ((constraint104 ))
:extrapreds ((constraint103 ))
:extrapreds ((constraint102 ))
:extrapreds ((constraint101 ))
:extrapreds ((constraint100 ))
:extrapreds ((constraint99 ))
:extrapreds ((constraint98 ))
:extrapreds ((constraint97 ))
:extrapreds ((constraint96 ))
:extrapreds ((constraint95 ))
:extrapreds ((constraint94 ))
:extrapreds ((constraint93 ))
:extrapreds ((constraint92 ))
:extrapreds ((constraint91 ))
:extrapreds ((constraint90 ))
:extrapreds ((constraint89 ))
:extrapreds ((constraint88 ))
:extrapreds ((constraint87 ))
:extrapreds ((constraint86 ))
:extrapreds ((constraint85 ))
:extrapreds ((constraint84 ))
:extrapreds ((constraint83 ))
:extrapreds ((constraint82 ))
:extrapreds ((constraint81 ))
:extrapreds ((constraint80 ))
:extrapreds ((constraint79 ))
:extrapreds ((constraint78 ))
:extrapreds ((constraint77 ))
:extrapreds ((constraint76 ))
:extrapreds ((constraint75 ))
:extrapreds ((constraint74 ))
:extrapreds ((constraint73 ))
:extrapreds ((constraint72 ))
:extrapreds ((constraint71 ))
:extrapreds ((constraint70 ))
:extrapreds ((constraint69 ))
:extrapreds ((constraint68 ))
:extrapreds ((constraint67 ))
:extrapreds ((constraint66 ))
:extrapreds ((constraint65 ))
:extrapreds ((constraint64 ))
:extrapreds ((constraint63 ))
:extrapreds ((constraint62 ))
:extrapreds ((constraint61 ))
:extrapreds ((constraint60 ))
:extrapreds ((constraint59 ))
:extrapreds ((constraint58 ))
:extrapreds ((constraint57 ))
:extrapreds ((constraint56 ))
:extrapreds ((constraint55 ))
:extrapreds ((constraint54 ))
:extrapreds ((constraint53 ))
:extrapreds ((constraint52 ))
:extrapreds ((constraint51 ))
:extrapreds ((constraint50 ))
:extrapreds ((constraint49 ))
:extrapreds ((constraint48 ))
:extrapreds ((constraint47 ))
:extrapreds ((constraint46 ))
:extrapreds ((constraint45 ))
:extrapreds ((constraint44 ))
:extrapreds ((constraint43 ))
:extrapreds ((constraint42 ))
:extrapreds ((constraint41 ))
:extrapreds ((constraint40 ))
:extrapreds ((constraint39 ))
:extrapreds ((constraint38 ))
:extrapreds ((constraint37 ))
:extrapreds ((constraint36 ))
:extrapreds ((constraint35 ))
:extrapreds ((constraint34 ))
:extrapreds ((constraint33 ))
:extrapreds ((constraint32 ))
:extrapreds ((constraint31 ))
:extrapreds ((constraint30 ))
:extrapreds ((constraint29 ))
:extrapreds ((constraint28 ))
:extrapreds ((constraint27 ))
:extrapreds ((constraint26 ))
:extrapreds ((constraint25 ))
:extrapreds ((constraint24 ))
:extrapreds ((constraint23 ))
:extrapreds ((constraint22 ))
:extrapreds ((constraint21 ))
:extrapreds ((constraint20 ))
:extrapreds ((constraint19 ))
:extrapreds ((constraint18 ))
:extrapreds ((constraint17 ))
:extrapreds ((constraint16 ))
:extrapreds ((constraint15 ))
:extrapreds ((constraint14 ))
:extrapreds ((constraint13 ))
:extrapreds ((constraint12 ))
:extrapreds ((constraint11 ))
:extrapreds ((constraint10 ))
:extrapreds ((constraint9 ))
:extrapreds ((constraint8 ))
:extrapreds ((constraint7 ))
:extrapreds ((constraint6 ))
:extrapreds ((constraint5 ))
:extrapreds ((constraint4 ))
:extrapreds ((constraint3 ))
:extrapreds ((constraint2 ))
:extrapreds ((constraint1 ))
:extrapreds ((constraint0 ))
:formula
(flet ($x679 (and constraint0 constraint1 constraint2 constraint3 constraint4 constraint5 constraint6 constraint7 constraint8 constraint9 constraint10 constraint11 constraint12 constraint13 constraint14 constraint15 constraint16 constraint17 constraint18 constraint19 constraint20 constraint21 constraint22 constraint23 constraint24 constraint25 constraint26 constraint27 constraint28 constraint29 constraint30 constraint31 constraint32 constraint33 constraint34 constraint35 constraint36 constraint37 constraint38 constraint39 constraint40 constraint41 constraint42 constraint43 constraint44 constraint45 constraint46 constraint47 constraint48 constraint49 constraint50 constraint51 constraint52 constraint53 constraint54 constraint55 constraint56 constraint57 constraint58 constraint59 constraint60 constraint61 constraint62 constraint63 constraint64 constraint65 constraint66 constraint67 constraint68 constraint69 constraint70 constraint71 constraint72 constraint73 constraint74 constraint75 constraint76 constraint77 constraint78 constraint79 constraint80 constraint81 constraint82 constraint83 constraint84 constraint85 constraint86 constraint87 constraint88 constraint89 constraint90 constraint91 constraint92 constraint93 constraint94 constraint95 constraint96 constraint97 constraint98 constraint99 constraint100 constraint101 constraint102 constraint103 constraint104 constraint105 constraint106 constraint107 constraint108 constraint109 constraint110 constraint111 constraint112 constraint113 constraint114 constraint115 constraint116 constraint117 constraint118 constraint119 constraint120 constraint121 constraint122 constraint123 constraint124 constraint125 constraint126 constraint127 constraint128 constraint129 constraint130))
(flet ($x415 (= gtINDEX79 (select gtFIELD__bitsForTID0__gtAGG____anonstruct_D_Work_4 gtINDEX78)))
(flet ($x411 (= gtINDEX77 (select gtFIELD__bitsForTID0__gtAGG____anonstruct_D_Work_4 gtINDEX76)))
(flet ($x407 (= gtINDEX75 (select gtFIELD__bitsForTID0__gtAGG____anonstruct_D_Work_4 gtINDEX74)))
(flet ($x403 (= gtINDEX73 (select gtFIELD__bitsForTID0__gtAGG____anonstruct_D_Work_4 gtINDEX72)))
(flet ($x395 (= gtINDEX67 (select gtFIELD__bitsForTID0__gtAGG____anonstruct_D_Work_4 gtINDEX66)))
(flet ($x391 (= gtINDEX65 (select gtFIELD__bitsForTID0__gtAGG____anonstruct_D_Work_4 gtINDEX64)))
(flet ($x387 (= gtINDEX63 (select gtFIELD__bitsForTID0__gtAGG____anonstruct_D_Work_4 gtINDEX62)))
(flet ($x383 (= gtINDEX61 (select gtFIELD__bitsForTID0__gtAGG____anonstruct_D_Work_4 gtINDEX60)))
(flet ($x379 (= gtINDEX59 (select gtFIELD__bitsForTID0__gtAGG____anonstruct_D_Work_4 gtINDEX58)))
(flet ($x375 (= gtINDEX57 (select gtFIELD__bitsForTID0__gtAGG____anonstruct_D_Work_4 gtINDEX56)))
(flet ($x371 (= gtINDEX55 (select gtFIELD__bitsForTID0__gtAGG____anonstruct_D_Work_4 gtINDEX54)))
(flet ($x367 (= gtINDEX53 (select gtFIELD__bitsForTID0__gtAGG____anonstruct_D_Work_4 gtINDEX52)))
(flet ($x363 (= gtINDEX51 (select gtFIELD__bitsForTID0__gtAGG____anonstruct_D_Work_4 gtINDEX50)))
(flet ($x359 (= gtINDEX49 (select gtFIELD__bitsForTID0__gtAGG____anonstruct_D_Work_4 gtINDEX48)))
(flet ($x354 (= gtINDEX46 (select gtFIELD__bitsForTID0__gtAGG____anonstruct_D_Work_4 gtINDEX45)))
(flet ($x350 (= gtINDEX44 (select gtFIELD__bitsForTID0__gtAGG____anonstruct_D_Work_4 gtINDEX43)))
(flet ($x346 (= gtINDEX42 (select gtFIELD__bitsForTID0__gtAGG____anonstruct_D_Work_4 gtINDEX41)))
(flet ($x342 (= gtINDEX40 (select gtFIELD__bitsForTID0__gtAGG____anonstruct_D_Work_4 gtINDEX39)))
(flet ($x338 (= gtINDEX38 (select gtFIELD__bitsForTID0__gtAGG____anonstruct_D_Work_4 gtINDEX37)))
(flet ($x328 (= gtINDEX30 (select gtFIELD__bitsForTID0__gtAGG____anonstruct_D_Work_4 gtINDEX29)))
(flet ($x324 (= gtINDEX28 (select gtFIELD__bitsForTID0__gtAGG____anonstruct_D_Work_4 gtINDEX27)))
(flet ($x320 (= gtINDEX26 (select gtFIELD__bitsForTID0__gtAGG____anonstruct_D_Work_4 gtINDEX25)))
(flet ($x316 (= gtINDEX24 (select gtFIELD__bitsForTID0__gtAGG____anonstruct_D_Work_4 gtINDEX23)))
(flet ($x312 (= gtINDEX22 (select gtFIELD__bitsForTID0__gtAGG____anonstruct_D_Work_4 gtINDEX21)))
(flet ($x308 (= gtINDEX20 (select gtFIELD__bitsForTID0__gtAGG____anonstruct_D_Work_4 gtINDEX19)))
(flet ($x304 (= gtINDEX18 (select gtFIELD__bitsForTID0__gtAGG____anonstruct_D_Work_4 gtINDEX17)))
(flet ($x300 (= gtINDEX16 (select gtFIELD__bitsForTID0__gtAGG____anonstruct_D_Work_4 gtINDEX15)))
(flet ($x296 (= gtINDEX14 (select gtFIELD__bitsForTID0__gtAGG____anonstruct_D_Work_4 gtINDEX13)))
(flet ($x292 (= gtINDEX12 (select gtFIELD__bitsForTID0__gtAGG____anonstruct_D_Work_4 gtINDEX11)))
(flet ($x287 (= gtINDEX9 (select gtFIELD__bitsForTID0__gtAGG____anonstruct_D_Work_4 gtINDEX8)))
(flet ($x283 (= gtINDEX7 (select gtFIELD__bitsForTID0__gtAGG____anonstruct_D_Work_4 gtINDEX6)))
(flet ($x279 (= gtINDEX5 (select gtFIELD__bitsForTID0__gtAGG____anonstruct_D_Work_4 gtINDEX4)))
(flet ($x275 (= gtINDEX3 (select gtFIELD__bitsForTID0__gtAGG____anonstruct_D_Work_4 gtINDEX2)))
(flet ($x271 (= gtINDEX1 (select gtFIELD__bitsForTID0__gtAGG____anonstruct_D_Work_4 gtINDEX0)))
(let (?x255 (extract[0:0] bv1[32]))
(let (?x265 (store gtFIELD__is_Eng__gtAGG____anonstruct_bitsForTID0_5_1_ gtINDEX79 ?x255))
(flet ($x517 (iff constraint50 (= gtFIELD__is_Eng__gtAGG____anonstruct_bitsForTID0_5_2_ ?x265)))
(let (?x261 (select gtFIELD__is_Eng__gtAGG____anonstruct_bitsForTID0_5_1_ gtINDEX77))
(let (?x256 (store gtFIELD__is_Eng__gtAGG____anonstruct_bitsForTID0_5 gtINDEX75 ?x255))
(flet ($x511 (iff constraint47 (= gtFIELD__is_Eng__gtAGG____anonstruct_bitsForTID0_5_1_ ?x256)))
(let (?x252 (zero_extend[31] (select gtFIELD__is_Eng__gtAGG____anonstruct_bitsForTID0_5 gtINDEX73)))
(let (?x248 (store gtFIELD__sent__gtAGG____anonstruct_D_Work_4_1_ gtINDEX71 bv0[32]))
(flet ($x507 (iff constraint45 (= gtFIELD__sent__gtAGG____anonstruct_D_Work_4_2_ ?x248)))
(let (?x139 (bvmul bv4294967295[32] bv1[32]))
(flet ($x246 (= (select gtFIELD__sent__gtAGG____anonstruct_D_Work_4_1_ gtINDEX70) ?x139))
(flet ($x242 (= (select gtFIELD__sent__gtAGG____anonstruct_D_Work_4_1_ gtINDEX69) bv9[32]))
(flet ($x238 (= (select gtFIELD__sent__gtAGG____anonstruct_D_Work_4_1_ gtINDEX68) bv4[32]))
(let (?x234 (zero_extend[31] (select gtFIELD__is_Eng__gtAGG____anonstruct_bitsForTID0_5 gtINDEX67)))
(let (?x228 (select gtFIELD__is_active_Eng__gtAGG____anonstruct_bitsForTID0_5 gtINDEX65))
(let (?x222 (select gtFIELD__is_active_PURI__gtAGG____anonstruct_bitsForTID0_5 gtINDEX63))
(let (?x109 (extract[1:0] bv0[32]))
(let (?x219 (store gtFIELD__is_PVRP__gtAGG____anonstruct_bitsForTID0_5_1_ gtINDEX61 ?x109))
(flet ($x493 (iff constraint38 (= gtFIELD__is_PVRP__gtAGG____anonstruct_bitsForTID0_5_2_ ?x219)))
(let (?x214 (select gtFIELD__is_PVRP__gtAGG____anonstruct_bitsForTID0_5_1_ gtINDEX59))
(let (?x209 (select gtFIELD__is_PVRP__gtAGG____anonstruct_bitsForTID0_5_1_ gtINDEX57))
(let (?x204 (select gtFIELD__is_PVRP__gtAGG____anonstruct_bitsForTID0_5_1_ gtINDEX55))
(let (?x199 (select gtFIELD__is_active_PVRP__gtAGG____anonstruct_bitsForTID0_5 gtINDEX53))
(let (?x193 (select gtFIELD__is_active_PPVARP__gtAGG____anonstruct_bitsForTID0_5 gtINDEX51))
(let (?x187 (select gtFIELD__is_active_PLRI__gtAGG____anonstruct_bitsForTID0_5 gtINDEX49))
(flet ($x184 (= (select gtFIELD__sent__gtAGG____anonstruct_D_Work_4_1_ gtINDEX47) bv0[32]))
(let (?x179 (select gtFIELD__is_PAVI__gtAGG____anonstruct_bitsForTID0_5 gtINDEX46))
(let (?x174 (select gtFIELD__is_PAVI__gtAGG____anonstruct_bitsForTID0_5 gtINDEX44))
(let (?x169 (select gtFIELD__is_PAVI__gtAGG____anonstruct_bitsForTID0_5 gtINDEX42))
(let (?x164 (select gtFIELD__is_PAVI__gtAGG____anonstruct_bitsForTID0_5 gtINDEX40))
(let (?x159 (select gtFIELD__is_active_PAVI__gtAGG____anonstruct_bitsForTID0_5 gtINDEX38))
(flet ($x151 (= gtFIELD__sent__gtAGG____anonstruct_D_Work_4_1_ (store gtFIELD__sent__gtAGG____anonstruct_D_Work_4 gtINDEX36 ?x139)))
(flet ($x148 (= (select gtFIELD__sent__gtAGG____anonstruct_D_Work_4 gtINDEX35) bv2[32]))
(flet ($x144 (= (select gtFIELD__sent__gtAGG____anonstruct_D_Work_4 gtINDEX34) bv1[32]))
(flet ($x140 (= (select gtFIELD__sent__gtAGG____anonstruct_D_Work_4 gtINDEX33) ?x139))
(flet ($x134 (= (select gtFIELD__sent__gtAGG____anonstruct_D_Work_4 gtINDEX32) bv9[32]))
(flet ($x129 (= (select gtFIELD__sent__gtAGG____anonstruct_D_Work_4 gtINDEX31) bv4[32]))
(let (?x125 (zero_extend[31] (select gtFIELD__is_Eng__gtAGG____anonstruct_bitsForTID0_5 gtINDEX30)))
(let (?x119 (select gtFIELD__is_active_Eng__gtAGG____anonstruct_bitsForTID0_5 gtINDEX28))
(let (?x113 (select gtFIELD__is_active_PURI__gtAGG____anonstruct_bitsForTID0_5 gtINDEX26))
(let (?x110 (store gtFIELD__is_PVRP__gtAGG____anonstruct_bitsForTID0_5 gtINDEX24 ?x109))
(flet ($x443 (iff constraint13 (= gtFIELD__is_PVRP__gtAGG____anonstruct_bitsForTID0_5_1_ ?x110)))
(let (?x104 (select gtFIELD__is_PVRP__gtAGG____anonstruct_bitsForTID0_5 gtINDEX22))
(let (?x99 (select gtFIELD__is_PVRP__gtAGG____anonstruct_bitsForTID0_5 gtINDEX20))
(let (?x94 (select gtFIELD__is_PVRP__gtAGG____anonstruct_bitsForTID0_5 gtINDEX18))
(let (?x89 (select gtFIELD__is_active_PVRP__gtAGG____anonstruct_bitsForTID0_5 gtINDEX16))
(let (?x83 (select gtFIELD__is_active_PPVARP__gtAGG____anonstruct_bitsForTID0_5 gtINDEX14))
(let (?x77 (select gtFIELD__is_active_PLRI__gtAGG____anonstruct_bitsForTID0_5 gtINDEX12))
(flet ($x74 (= (select gtFIELD__sent__gtAGG____anonstruct_D_Work_4 gtINDEX10) bv0[32]))
(let (?x69 (zero_extend[29] (select gtFIELD__is_PAVI__gtAGG____anonstruct_bitsForTID0_5 gtINDEX9)))
(let (?x63 (zero_extend[29] (select gtFIELD__is_PAVI__gtAGG____anonstruct_bitsForTID0_5 gtINDEX7)))
(let (?x57 (zero_extend[29] (select gtFIELD__is_PAVI__gtAGG____anonstruct_bitsForTID0_5 gtINDEX5)))
(let (?x51 (zero_extend[29] (select gtFIELD__is_PAVI__gtAGG____anonstruct_bitsForTID0_5 gtINDEX3)))
(let (?x44 (select gtFIELD__is_active_PAVI__gtAGG____anonstruct_bitsForTID0_5 gtINDEX1))
(flet ($x678 (and (iff constraint0 (not (= sfEvent_ bv8[32]))) (iff constraint1 (not (= (zero_extend[31] ?x44) bv0[32]))) (iff constraint2 (not (= ?x51 bv1[32]))) (iff constraint3 (not (= ?x57 bv2[32]))) (iff constraint4 (not (= ?x63 bv3[32]))) (iff constraint5 (= ?x69 bv4[32])) (iff constraint6 (not $x74)) (iff constraint7 (not (not (= (zero_extend[31] ?x77) bv0[32])))) (iff constraint8 (not (not (= (zero_extend[31] ?x83) bv0[32])))) (iff constraint9 (not (= (zero_extend[31] ?x89) bv0[32]))) (iff constraint10 (not (= (zero_extend[30] ?x94) bv1[32]))) (iff constraint11 (not (= (zero_extend[30] ?x99) bv2[32]))) (iff constraint12 (not (= (zero_extend[30] ?x104) bv3[32]))) $x443 (iff constraint14 (not (not (= (zero_extend[31] ?x113) bv0[32])))) (iff constraint15 (not (= (zero_extend[31] ?x119) bv0[32]))) (iff constraint16 (= ?x125 bv1[32])) (iff constraint17 (not $x129)) (iff constraint18 (not $x134)) (iff constraint19 (not $x140)) (iff constraint20 (not $x144)) (iff constraint21 $x148) (iff constraint22 $x151) (iff constraint23 (= sf_previousEvent_1_ sfEvent_)) (iff constraint24 (= sfEvent__1_ bv3[32])) (iff constraint25 (not (= sfEvent__1_ bv8[32]))) (iff constraint26 (not (= (zero_extend[31] ?x159) bv0[32]))) (iff constraint27 (not (= (zero_extend[29] ?x164) bv1[32]))) (iff constraint28 (not (= (zero_extend[29] ?x169) bv2[32]))) (iff constraint29 (not (= (zero_extend[29] ?x174) bv3[32]))) (iff constraint30 (= (zero_extend[29] ?x179) bv4[32])) (iff constraint31 (not $x184)) (iff constraint32 (not (not (= (zero_extend[31] ?x187) bv0[32])))) (iff constraint33 (not (not (= (zero_extend[31] ?x193) bv0[32])))) (iff constraint34 (not (= (zero_extend[31] ?x199) bv0[32]))) (iff constraint35 (not (= (zero_extend[30] ?x204) bv1[32]))) (iff constraint36 (not (= (zero_extend[30] ?x209) bv2[32]))) (iff constraint37 (not (= (zero_extend[30] ?x214) bv3[32]))) $x493 (iff constraint39 (not (not (= (zero_extend[31] ?x222) bv0[32])))) (iff constraint40 (not (= (zero_extend[31] ?x228) bv0[32]))) (iff constraint41 (= ?x234 bv1[32])) (iff constraint42 (not $x238)) (iff constraint43 (not $x242)) (iff constraint44 $x246) $x507 (iff constraint46 (= ?x252 bv1[32])) $x511 (iff constraint48 (= sfEvent__2_ sf_previousEvent_1_)) (iff constraint49 (= (zero_extend[31] ?x261) bv1[32])) $x517 (iff constraint51 (= gtINDEX0 gtAGG__rtDWork)) (iff constraint52 $x271) (iff constraint53 (= gtINDEX2 gtAGG__rtDWork)) (iff constraint54 $x275) (iff constraint55 (= gtINDEX4 gtAGG__rtDWork)) (iff constraint56 $x279) (iff constraint57 (= gtINDEX6 gtAGG__rtDWork)) (iff constraint58 $x283) (iff constraint59 (= gtINDEX8 gtAGG__rtDWork)) (iff constraint60 $x287) (iff constraint61 (= gtINDEX10 gtAGG__rtDWork)) (iff constraint62 (= gtINDEX11 gtAGG__rtDWork)) (iff constraint63 $x292) (iff constraint64 (= gtINDEX13 gtAGG__rtDWork)) (iff constraint65 $x296) (iff constraint66 (= gtINDEX15 gtAGG__rtDWork)) (iff constraint67 $x300) (iff constraint68 (= gtINDEX17 gtAGG__rtDWork)) (iff constraint69 $x304) (iff constraint70 (= gtINDEX19 gtAGG__rtDWork)) (iff constraint71 $x308) (iff constraint72 (= gtINDEX21 gtAGG__rtDWork)) (iff constraint73 $x312) (iff constraint74 (= gtINDEX23 gtAGG__rtDWork)) (iff constraint75 $x316) (iff constraint76 (= gtINDEX25 gtAGG__rtDWork)) (iff constraint77 $x320) (iff constraint78 (= gtINDEX27 gtAGG__rtDWork)) (iff constraint79 $x324) (iff constraint80 (= gtINDEX29 gtAGG__rtDWork)) (iff constraint81 $x328) (iff constraint82 (= gtINDEX31 gtAGG__rtDWork)) (iff constraint83 (= gtINDEX32 gtAGG__rtDWork)) (iff constraint84 (= gtINDEX33 gtAGG__rtDWork)) (iff constraint85 (= gtINDEX34 gtAGG__rtDWork)) (iff constraint86 (= gtINDEX35 gtAGG__rtDWork)) (iff constraint87 (= gtINDEX36 gtAGG__rtDWork)) (iff constraint88 (= gtINDEX37 gtAGG__rtDWork)) (iff constraint89 $x338) (iff constraint90 (= gtINDEX39 gtAGG__rtDWork)) (iff constraint91 $x342) (iff constraint92 (= gtINDEX41 gtAGG__rtDWork)) (iff constraint93 $x346) (iff constraint94 (= gtINDEX43 gtAGG__rtDWork)) (iff constraint95 $x350) (iff constraint96 (= gtINDEX45 gtAGG__rtDWork)) (iff constraint97 $x354) (iff constraint98 (= gtINDEX47 gtAGG__rtDWork)) (iff constraint99 (= gtINDEX48 gtAGG__rtDWork)) (iff constraint100 $x359) (iff constraint101 (= gtINDEX50 gtAGG__rtDWork)) (iff constraint102 $x363) (iff constraint103 (= gtINDEX52 gtAGG__rtDWork)) (iff constraint104 $x367) (iff constraint105 (= gtINDEX54 gtAGG__rtDWork)) (iff constraint106 $x371) (iff constraint107 (= gtINDEX56 gtAGG__rtDWork)) (iff constraint108 $x375) (iff constraint109 (= gtINDEX58 gtAGG__rtDWork)) (iff constraint110 $x379) (iff constraint111 (= gtINDEX60 gtAGG__rtDWork)) (iff constraint112 $x383) (iff constraint113 (= gtINDEX62 gtAGG__rtDWork)) (iff constraint114 $x387) (iff constraint115 (= gtINDEX64 gtAGG__rtDWork)) (iff constraint116 $x391) (iff constraint117 (= gtINDEX66 gtAGG__rtDWork)) (iff constraint118 $x395) (iff constraint119 (= gtINDEX68 gtAGG__rtDWork)) (iff constraint120 (= gtINDEX69 gtAGG__rtDWork)) (iff constraint121 (= gtINDEX70 gtAGG__rtDWork)) (iff constraint122 (= gtINDEX71 gtAGG__rtDWork)) (iff constraint123 (= gtINDEX72 gtAGG__rtDWork)) (iff constraint124 $x403) (iff constraint125 (= gtINDEX74 gtAGG__rtDWork)) (iff constraint126 $x407) (iff constraint127 (= gtINDEX76 gtAGG__rtDWork)) (iff constraint128 $x411) (iff constraint129 (= gtINDEX78 gtAGG__rtDWork)) (iff constraint130 $x415)))
(and $x678 $x679)))))))))))))))))))))))))))))))))))))))))))))))))))))))))))))))))))))))))))))))))))))))))))
)
